l=127;
a=2;
setup_costs=[|3,3,
|0,3,
|0,0|];
setup_times=[|2,3,
|3,1,
|0,0|];
m=5;
min_cap=[0,0,0,0,0];
max_cap=[9,6,15,12,15];

initState=[1,2,1,1,1];
s=3;
m_a_s = [|28,71,111,
|0,35,98,
|6,21,50,
|0,18,67,
|15,42,61|];
m_a_e = [|68,106,127,
|29,88,125,
|19,45,117,
|0,65,125,
|39,61,114|];
n=10;
eligible_machine = [{5},
{3},
{3},
{2,5},
{5,1},
{2,4,5},
{5,3},
{3,1,2},
{2,3,5},
{4,1}];
earliest_start=[9,5,6,21,21,12,11,24,20,6];
latest_end=[10,10,10,24,27,23,22,33,24,15];
min_time=[1,3,4,2,4,9,8,5,4,7];
max_time=[10,10,10,10,10,10,10,10,10,10];
size=[3,3,4,1,5,5,4,1,4,5];
attribute=[1,2,2,1,1,1,1,1,2,1];

upper_bound_integer_objective=750;
mult_factor_total_runtime=6;
mult_factor_finished_toolate=30;
mult_factor_total_setuptimes=0;
mult_factor_total_setupcosts=5;
running_time_bound=47;
min_duration=1;
max_duration=9;
max_setup_time=3;
max_setup_cost=3;
